(set-logic ALL)
(declare-const nth_VAR Int)
(assert (not (<= nth_VAR 0)))
(assert (> nth_VAR 0))
(assert (> nth_VAR 1))
(assert (> nth_VAR 2))
(assert (> nth_VAR 2))
(assert (> nth_VAR 3))
(assert (> nth_VAR 3))
(assert (> nth_VAR 4))
(assert (> nth_VAR 4))
(assert (> nth_VAR 4))
(assert (> nth_VAR 4))
(assert (> nth_VAR 5))
(assert (> nth_VAR 5))
(assert (> nth_VAR 6))
(assert (> nth_VAR 6))
(assert (> nth_VAR 6))
(assert (> nth_VAR 6))
(assert (> nth_VAR 7))
(assert (> nth_VAR 7))
(assert (> nth_VAR 8))
(assert (> nth_VAR 8))
(assert (> nth_VAR 8))
(assert (> nth_VAR 8))
(assert (> nth_VAR 9))
(assert (> nth_VAR 9))
(assert (> nth_VAR 9))
(assert (> nth_VAR 9))
(assert (> nth_VAR 9))
(assert (> nth_VAR 9))
(assert (> nth_VAR 10))
(assert (> nth_VAR 10))
(assert (> nth_VAR 11))
(assert (> nth_VAR 11))
(assert (> nth_VAR 11))
(assert (> nth_VAR 11))
(assert (> nth_VAR 11))
(assert (> nth_VAR 11))
(assert (> nth_VAR 12))
(assert (> nth_VAR 12))
(assert (> nth_VAR 12))
(assert (> nth_VAR 12))
(assert (> nth_VAR 13))
(assert (> nth_VAR 13))
(assert (> nth_VAR 14))
(assert (> nth_VAR 14))
(assert (> nth_VAR 14))
(assert (> nth_VAR 14))
(assert (> nth_VAR 15))
(assert (> nth_VAR 15))
(assert (> nth_VAR 15))
(assert (> nth_VAR 15))
(assert (> nth_VAR 15))
(assert (> nth_VAR 15))
(assert (> nth_VAR 16))
(assert (> nth_VAR 16))
(assert (> nth_VAR 16))
(assert (> nth_VAR 16))
(assert (> nth_VAR 16))
(assert (> nth_VAR 16))
(assert (> nth_VAR 17))
(assert (> nth_VAR 17))
(assert (> nth_VAR 18))
(assert (> nth_VAR 18))
(assert (> nth_VAR 18))
(assert (> nth_VAR 18))
(assert (> nth_VAR 18))
(assert (> nth_VAR 18))
(assert (> nth_VAR 19))
(assert (> nth_VAR 19))
(assert (> nth_VAR 19))
(assert (> nth_VAR 19))
(assert (> nth_VAR 20))
(assert (> nth_VAR 20))
(assert (> nth_VAR 21))
(assert (> nth_VAR 21))
(assert (> nth_VAR 21))
(assert (> nth_VAR 21))
(assert (> nth_VAR 21))
(assert (> nth_VAR 21))
(assert (> nth_VAR 22))
(assert (> nth_VAR 22))
(assert (> nth_VAR 22))
(assert (> nth_VAR 22))
(assert (> nth_VAR 23))
(assert (> nth_VAR 23))
(assert (> nth_VAR 23))
(assert (> nth_VAR 23))
(assert (> nth_VAR 23))
(assert (> nth_VAR 23))
(assert (> nth_VAR 24))
(assert (> nth_VAR 24))
(assert (> nth_VAR 24))
(assert (> nth_VAR 24))
(assert (> nth_VAR 24))
(assert (> nth_VAR 24))
(assert (> nth_VAR 24))
(assert (> nth_VAR 24))
(assert (> nth_VAR 25))
(assert (> nth_VAR 25))
(assert (> nth_VAR 25))
(assert (> nth_VAR 25))
(assert (> nth_VAR 26))
(assert (> nth_VAR 26))
(assert (> nth_VAR 27))
(assert (> nth_VAR 27))
(assert (> nth_VAR 27))
(assert (> nth_VAR 27))
(assert (> nth_VAR 28))
(assert (> nth_VAR 28))
(assert (> nth_VAR 29))
(assert (> nth_VAR 29))
(assert (> nth_VAR 29))
(assert (> nth_VAR 29))
(assert (> nth_VAR 30))
(assert (> nth_VAR 30))
(assert (> nth_VAR 30))
(assert (> nth_VAR 30))
(assert (> nth_VAR 30))
(assert (> nth_VAR 30))
(assert (> nth_VAR 30))
(assert (> nth_VAR 30))
(assert (> nth_VAR 30))
(assert (> nth_VAR 30))
(assert (> nth_VAR 30))
(assert (> nth_VAR 30))
(assert (> nth_VAR 30))
(assert (> nth_VAR 30))
(assert (> nth_VAR 31))
(assert (> nth_VAR 31))
(assert (> nth_VAR 31))
(assert (> nth_VAR 31))
(assert (> nth_VAR 32))
(assert (> nth_VAR 32))
(assert (> nth_VAR 32))
(assert (> nth_VAR 32))
(assert (> nth_VAR 32))
(assert (> nth_VAR 32))
(assert (> nth_VAR 33))
(assert (> nth_VAR 33))
(assert (> nth_VAR 34))
(assert (> nth_VAR 34))
(assert (> nth_VAR 34))
(assert (> nth_VAR 34))
(assert (> nth_VAR 34))
(assert (> nth_VAR 34))
(assert (> nth_VAR 34))
(assert (> nth_VAR 34))
(assert (> nth_VAR 34))
(assert (> nth_VAR 34))
(assert (> nth_VAR 35))
(assert (> nth_VAR 35))
(assert (> nth_VAR 36))
(assert (> nth_VAR 36))
(assert (> nth_VAR 36))
(assert (> nth_VAR 36))
(assert (> nth_VAR 36))
(assert (> nth_VAR 36))
(assert (> nth_VAR 37))
(assert (> nth_VAR 37))
(assert (> nth_VAR 37))
(assert (> nth_VAR 37))
(assert (> nth_VAR 37))
(assert (> nth_VAR 37))
(assert (> nth_VAR 38))
(assert (> nth_VAR 38))
(assert (> nth_VAR 38))
(assert (> nth_VAR 38))
(assert (> nth_VAR 39))
(assert (> nth_VAR 39))
(assert (> nth_VAR 39))
(assert (> nth_VAR 39))
(assert (> nth_VAR 39))
(assert (> nth_VAR 39))
(assert (> nth_VAR 40))
(assert (> nth_VAR 40))
(assert (> nth_VAR 40))
(assert (> nth_VAR 40))
(assert (> nth_VAR 40))
(assert (> nth_VAR 40))
(assert (> nth_VAR 41))
(assert (> nth_VAR 41))
(assert (> nth_VAR 42))
(assert (> nth_VAR 42))
(assert (> nth_VAR 42))
(assert (> nth_VAR 42))
(assert (> nth_VAR 42))
(assert (> nth_VAR 42))
(assert (> nth_VAR 42))
(assert (> nth_VAR 42))
(assert (> nth_VAR 42))
(assert (> nth_VAR 42))
(assert (> nth_VAR 43))
(assert (> nth_VAR 43))
(assert (> nth_VAR 44))
(assert (> nth_VAR 44))
(assert (> nth_VAR 44))
(assert (> nth_VAR 44))
(assert (> nth_VAR 45))
(assert (> nth_VAR 45))
(assert (> nth_VAR 46))
(assert (> nth_VAR 46))
(assert (> nth_VAR 46))
(assert (> nth_VAR 46))
(assert (> nth_VAR 46))
(assert (> nth_VAR 46))
(assert (> nth_VAR 46))
(assert (> nth_VAR 46))
(assert (> nth_VAR 46))
(assert (> nth_VAR 46))
(assert (> nth_VAR 46))
(assert (> nth_VAR 46))
(assert (> nth_VAR 47))
(assert (> nth_VAR 47))
(assert (> nth_VAR 47))
(assert (> nth_VAR 47))
(assert (> nth_VAR 47))
(assert (> nth_VAR 47))
(assert (> nth_VAR 47))
(assert (> nth_VAR 47))
(assert (> nth_VAR 47))
(assert (> nth_VAR 47))
(assert (> nth_VAR 47))
(assert (> nth_VAR 47))
(assert (> nth_VAR 48))
(assert (> nth_VAR 48))
(assert (> nth_VAR 48))
(assert (> nth_VAR 48))
(assert (> nth_VAR 49))
(assert (> nth_VAR 49))
(assert (> nth_VAR 50))
(assert (> nth_VAR 50))
(assert (> nth_VAR 50))
(assert (> nth_VAR 50))
(assert (> nth_VAR 51))
(assert (> nth_VAR 51))
(assert (> nth_VAR 51))
(assert (> nth_VAR 51))
(assert (> nth_VAR 51))
(assert (> nth_VAR 51))
(assert (> nth_VAR 52))
(assert (> nth_VAR 52))
(assert (> nth_VAR 53))
(assert (> nth_VAR 53))
(assert (> nth_VAR 53))
(assert (> nth_VAR 53))
(assert (> nth_VAR 53))
(assert (> nth_VAR 53))
(assert (> nth_VAR 53))
(assert (> nth_VAR 53))
(assert (> nth_VAR 53))
(assert (> nth_VAR 53))
(assert (> nth_VAR 54))
(assert (> nth_VAR 54))
(assert (> nth_VAR 54))
(assert (> nth_VAR 54))
(assert (> nth_VAR 54))
(assert (> nth_VAR 54))
(assert (> nth_VAR 55))
(assert (> nth_VAR 55))
(assert (> nth_VAR 55))
(assert (> nth_VAR 55))
(assert (> nth_VAR 55))
(assert (> nth_VAR 55))
(assert (> nth_VAR 56))
(assert (> nth_VAR 56))
(assert (> nth_VAR 56))
(assert (> nth_VAR 56))
(assert (> nth_VAR 56))
(assert (> nth_VAR 56))
(assert (> nth_VAR 57))
(assert (> nth_VAR 57))
(assert (> nth_VAR 58))
(assert (> nth_VAR 58))
(assert (> nth_VAR 58))
(assert (> nth_VAR 58))
(assert (> nth_VAR 58))
(assert (> nth_VAR 58))
(assert (> nth_VAR 59))
(assert (> nth_VAR 59))
(assert (> nth_VAR 59))
(assert (> nth_VAR 59))
(assert (> nth_VAR 60))
(assert (> nth_VAR 60))
(assert (> nth_VAR 61))
(assert (> nth_VAR 61))
(assert (> nth_VAR 61))
(assert (> nth_VAR 61))
(assert (> nth_VAR 61))
(assert (> nth_VAR 61))
(assert (> nth_VAR 61))
(assert (> nth_VAR 61))
(assert (> nth_VAR 61))
(assert (> nth_VAR 61))
(assert (> nth_VAR 62))
(assert (> nth_VAR 62))
(assert (> nth_VAR 62))
(assert (> nth_VAR 62))
(assert (> nth_VAR 62))
(assert (> nth_VAR 62))
(assert (> nth_VAR 62))
(assert (> nth_VAR 62))
(assert (> nth_VAR 62))
(assert (> nth_VAR 62))
(assert (> nth_VAR 62))
(assert (> nth_VAR 62))
(assert (> nth_VAR 62))
(assert (> nth_VAR 62))
(assert (> nth_VAR 63))
(assert (> nth_VAR 63))
(assert (> nth_VAR 63))
(assert (> nth_VAR 63))
(assert (> nth_VAR 64))
(assert (> nth_VAR 64))
(assert (> nth_VAR 65))
(assert (> nth_VAR 65))
(assert (> nth_VAR 65))
(assert (> nth_VAR 65))
(assert (> nth_VAR 66))
(assert (> nth_VAR 66))
(assert (> nth_VAR 66))
(assert (> nth_VAR 66))
(assert (> nth_VAR 66))
(assert (> nth_VAR 66))
(assert (> nth_VAR 66))
(assert (> nth_VAR 66))
(assert (> nth_VAR 66))
(assert (> nth_VAR 66))
(assert (> nth_VAR 66))
(assert (> nth_VAR 66))
(assert (> nth_VAR 66))
(assert (> nth_VAR 66))
(assert (> nth_VAR 67))
(assert (> nth_VAR 67))
(assert (> nth_VAR 67))
(assert (> nth_VAR 67))
(assert (> nth_VAR 67))
(assert (> nth_VAR 67))
(assert (> nth_VAR 68))
(assert (> nth_VAR 68))
(assert (> nth_VAR 68))
(assert (> nth_VAR 68))
(assert (> nth_VAR 68))
(assert (> nth_VAR 68))
(assert (> nth_VAR 68))
(assert (> nth_VAR 68))
(assert (> nth_VAR 68))
(assert (> nth_VAR 68))
(assert (> nth_VAR 69))
(assert (not (> nth_VAR 69)))
(check-sat)
(get-value (nth_VAR))
